c status 86 1469386696887
c status 67 1469386696889
c status 66 1469386696920
c status 65 1469386697373
c status 64 1469386702149
s td 27 64 96
b 1 9 7 24 8 6 36 13 49 53 38 5 57 35 46 23 62 67 96 22 90 79 3 75 82 68 89
b 2 7 2 24 8 6 50 36 33 13 49 53 38 5 57 35 46 20 21 23 62 67 96 80 94 65 22 90 79 73 86 3 75 82 68 47 89 60
b 3 2 24 8 6 50 36 33 13 49 53 38 5 1 57 35 46 20 21 23 62 67 96 80 94 65 22 90 79 73 19 86 85 59 3 75 82 32 68 47 89 72 45 60
b 4 34 24 8 6 50 36 33 49 38 37 26 29 30 25 27 20 21 66 78 63 19 61 93 31 3 82 48 32 74 87
b 5 51 8 50 36 13 49 53 38 37 5 43 44 41 20 81 95 66 67 78 65 22 39 42 92 48 47 45
b 6 24 8 6 50 36 33 13 49 53 38 37 5 1 26 57 29 30 35 46 25 27 20 21 23 62 66 67 96 78 80 94 65 63 22 90 79 73 19 61 93 31 86 85 59 3 75 82 48 32 68 47 74 87 89 72 45 60
b 7 8 6 50 36 33 13 49 53 38 37 5 43 44 1 26 57 29 30 35 41 46 25 27 20 21 23 62 81 95 66 67 96 78 80 94 65 63 22 90 79 73 39 42 19 61 93 92 31 86 85 59 3 75 82 48 32 68 47 74 87 89 72 45 60
b 8 50 36 33 13 49 53 38 37 5 43 44 1 26 57 29 30 35 41 46 25 27 20 21 23 62 81 95 66 67 96 78 80 94 65 63 22 90 79 73 39 42 19 61 91 93 92 31 86 85 59 3 75 82 48 77 32 68 47 74 87 89 72 45 60
b 9 33 13 49 53 38 37 5 43 44 1 26 57 29 30 35 41 46 25 27 20 21 23 62 81 95 66 67 96 78 80 94 65 63 22 90 79 73 39 42 19 61 91 93 92 31 86 85 59 3 75 82 48 77 18 32 68 47 74 87 89 72 45 60
b 10 49 53 38 37 5 43 44 1 26 57 29 30 35 41 46 25 27 20 21 23 62 81 95 66 67 96 78 80 94 65 63 22 90 79 73 40 39 42 19 61 91 93 92 31 86 85 59 3 75 82 48 77 18 32 68 47 74 87 89 72 45 60
b 11 5 43 44 1 26 57 29 30 35 41 46 25 27 20 21 23 62 81 95 66 67 96 78 80 94 65 63 22 90 79 73 40 39 42 19 84 61 91 93 92 31 86 85 59 58 3 75 82 48 77 18 32 68 47 74 87 89 71 72 45 60
b 12 10 14 12 17 11 54 69 83 1 26 35 46 25 20 21 23 22 73 39 42 19 15 58 18 89
b 13 14 12 17 11 54 69 83 4 43 1 26 57 29 30 35 41 46 25 27 20 21 23 22 79 73 39 42 19 61 93 15 86 58 77 18 68 89 72 45
b 14 12 56 17 11 54 69 83 4 43 44 1 26 57 29 30 35 41 46 25 27 20 21 23 22 79 73 39 42 19 61 93 92 15 86 85 58 75 77 18 68 89 71 72 45 60
b 15 55 70 56 11 54 69 4 26 29 41 46 62 66 67 65 63 90 39 42 84 61 15 86 59 58 71 60
b 16 70 56 17 11 54 69 83 4 43 26 29 30 41 46 62 81 66 67 78 80 65 63 90 73 39 42 84 61 15 86 85 59 58 3 75 82 77 74 71 72 60
b 17 56 17 11 54 69 83 4 43 44 1 26 57 29 30 35 41 46 25 27 20 21 23 62 81 66 67 78 80 65 63 22 90 79 73 16 39 42 19 84 61 93 92 15 86 85 59 58 3 75 82 77 18 68 74 87 89 71 72 45 60
b 18 17 11 54 69 83 4 43 44 1 26 57 29 30 35 41 46 25 27 20 21 23 62 81 95 66 67 78 80 65 63 22 90 79 73 16 39 42 19 84 61 93 92 31 15 86 85 59 58 3 75 82 48 77 18 32 68 74 87 89 71 72 45 60
b 19 11 54 69 83 4 43 44 1 26 57 29 30 35 41 46 25 27 20 21 23 62 81 95 66 67 78 80 65 63 22 90 79 73 16 39 42 19 84 61 91 93 92 31 15 86 85 59 58 3 75 82 48 77 18 32 68 74 87 89 71 72 45 60
b 20 52 28 64 76 88 54 4 1 66 40 16 82 74 89 60
b 21 28 64 76 88 54 4 43 1 29 95 66 80 63 40 16 86 58 82 48 32 74 89 72 60
b 22 64 76 88 54 69 4 43 1 29 95 66 67 80 63 40 16 91 86 58 75 82 48 32 74 89 72 60
b 23 76 88 54 69 83 4 43 1 29 95 66 67 80 63 40 16 91 92 86 58 75 82 48 77 32 74 89 72 60
b 24 88 54 69 83 4 43 1 29 95 66 67 80 63 40 16 91 93 92 86 58 75 82 48 77 32 74 89 72 60
b 25 54 69 83 4 43 44 1 26 57 29 30 35 41 46 25 27 20 21 23 62 81 95 66 67 78 80 65 63 22 90 79 73 40 16 39 42 19 84 61 91 93 92 31 15 86 85 59 58 3 75 82 48 77 18 32 68 74 87 89 71 72 45 60
b 26 83 4 43 44 1 26 57 29 30 35 41 46 25 27 20 21 23 62 81 95 66 67 96 78 80 94 65 63 22 90 79 73 40 16 39 42 19 84 61 91 93 92 31 15 86 85 59 58 3 75 82 48 77 18 32 68 74 87 89 71 72 45 60
b 27 43 44 1 26 57 29 30 35 41 46 25 27 20 21 23 62 81 95 66 67 96 78 80 94 65 63 22 90 79 73 40 16 39 42 19 84 61 91 93 92 31 15 86 85 59 58 3 75 82 48 77 18 32 68 47 74 87 89 71 72 45 60
1 2
2 3
3 6
6 7
7 8
8 9
9 10
10 11
11 27
27 26
26 25
25 19
19 18
18 17
17 14
17 16
14 13
6 4
25 24
24 23
7 5
16 15
23 22
13 12
22 21
21 20
